\ENCODING=ISO-8859-1
\Problem name: IloCplex

Minimize
 obj1: 10 tp(0) + 10 tm(0) + 10 tp(1) + 10 tm(1) + 10 tp(2) + 10 tm(2)
       + 10 tp(3) + 10 tm(3) + 10 tp(4) + 10 tm(4) + 10 tp(5) + 10 tm(5)
       + 10 tp(6) + 10 tm(6) + 10 tp(7) + 10 tm(7) + 10 tp(8) + 10 tm(8)
       + 10 tp(9) + 10 tm(9) + 10 tp(10) + 10 tm(10) + 10 tp(11) + 10 tm(11)
       + 10 tp(12) + 10 tm(12) + 10 tp(13) + 10 tm(13) + 10 tp(14) + 10 tm(14)
       + 10 tp(15) + 10 tm(15) + 10 tp(16) + 10 tm(16) + 10 tp(17) + 10 tm(17)
       + 10 tp(18) + 10 tm(18) + 10 tp(19) + 10 tm(19) + 10 tp(20) + 10 tm(20)
       + 10 tp(21) + 10 tm(21) + 10 tp(22) + 10 tm(22) + 10 tp(23) + 10 tm(23)
       + 10 tp(24) + 10 tm(24) + 10 tp(25) + 10 tm(25) + 10 tp(26) + 10 tm(26)
       + 10 tp(27) + 10 tm(27) + 10 tp(28) + 10 tm(28) + 10 tp(29) + 10 tm(29)
       + 10 tp(30) + 10 tm(30) + 10 tp(31) + 10 tm(31) + 10 tp(32) + 10 tm(32)
       + 10 tp(33) + 10 tm(33) + 10 tp(34) + 10 tm(34) + 10 tp(35) + 10 tm(35)
       + 10 tp(36) + 10 tm(36) + 10 tp(37) + 10 tm(37) + 10 tp(38) + 10 tm(38)
       + 10 tp(39) + 10 tm(39) + 10 tp(40) + 10 tm(40) + 10 tp(41) + 10 tm(41)
       + 10 tp(42) + 10 tm(42) + 10 tp(43) + 10 tm(43) + 10 tp(44) + 10 tm(44)
       + 10 tp(45) + 10 tm(45) + 10 tp(46) + 10 tm(46) + 10 tp(47) + 10 tm(47)
       + 10 tp(48) + 10 tm(48) + 10 tp(49) + 10 tm(49) + [ w(8) ^2 + w(7) ^2
       + w(6) ^2 + w(5) ^2 + w(4) ^2 + w(3) ^2 + w(2) ^2 + w(1) ^2 + w(0) ^2
       ] / 2
Subject To
 c1:   0.89538426 w(8) + 0.15339571 w(7) - 0.33553406 w(6) - 0.32357533 w(5)
       + 10.21727353 w(4) + 10.00815682 w(3) - 10.2169122 w(2)
       - 12.12173411 w(1) + 7.37835422 w(0) + z - pp(0) <= -9.60581557
 c2:   - 0.89538426 w(8) - 0.15339571 w(7) + 0.33553406 w(6) + 0.32357533 w(5)
       - 10.21727353 w(4) - 10.00815682 w(3) + 10.2169122 w(2)
       + 12.12173411 w(1) - 7.37835422 w(0) - z - pm(0) <= 10.00581557
 c3:   tp(0) - pp(0) <= 0
 c4:   tp(0) - 161 s(0) <= 0
 c5:   tp(0) - pp(0) - 161 s(0) >= -161
 c6:   tm(0) - pm(0) <= 0
 c7:   tm(0) - 77 s(0) <= 0
 c8:   tm(0) - pm(0) - 77 s(0) >= -77
 c9:   0.90091109 w(8) - 0.21181965 w(7) - 0.97656377 w(6) + 0.17258551 w(5)
       + 0.2806417 w(4) + 1.1818075 w(3) - 1.31086576 w(2) - 0.92617828 w(1)
       + 0.42262723 w(0) + z - pp(1) <= 0.05032809
 c10:  - 0.90091109 w(8) + 0.21181965 w(7) + 0.97656377 w(6) - 0.17258551 w(5)
       - 0.2806417 w(4) - 1.1818075 w(3) + 1.31086576 w(2) + 0.92617828 w(1)
       - 0.42262723 w(0) - z - pm(1) <= 0.34967191
 c11:  tp(1) - pp(1) <= 0
 c12:  tp(1) - 161 s(1) <= 0
 c13:  tp(1) - pp(1) - 161 s(1) >= -161
 c14:  tm(1) - pm(1) <= 0
 c15:  tm(1) - 77 s(1) <= 0
 c16:  tm(1) - pm(1) - 77 s(1) >= -77
 c17:  - 1.10739822 w(8) + 0.03304505 w(7) + 0.39072326 w(6) + 1.85897401 w(5)
       + 0.94643015 w(4) + 0.22303707 w(3) + 0.26690538 w(2) + 1.58736254 w(1)
       - 0.41053244 w(0) + z - pp(2) <= 3.01517446
 c18:  1.10739822 w(8) - 0.03304505 w(7) - 0.39072326 w(6) - 1.85897401 w(5)
       - 0.94643015 w(4) - 0.22303707 w(3) - 0.26690538 w(2) - 1.58736254 w(1)
       + 0.41053244 w(0) - z - pm(2) <= -2.61517446
 c19:  tp(2) - pp(2) <= 0
 c20:  tp(2) - 161 s(2) <= 0
 c21:  tp(2) - pp(2) - 161 s(2) >= -161
 c22:  tm(2) - pm(2) <= 0
 c23:  tm(2) - 77 s(2) <= 0
 c24:  tm(2) - pm(2) - 77 s(2) >= -77
 c25:  0.78430378 w(8) - 0.01673841 w(7) - 0.13988527 w(6) + 2.44683979 w(5)
       - 0.51337273 w(4) - 0.28488487 w(3) - 0.01561261 w(2) - 1.13594277 w(1)
       - 0.43891363 w(0) + z - pp(3) <= -0.39523834
 c26:  - 0.78430378 w(8) + 0.01673841 w(7) + 0.13988527 w(6) - 2.44683979 w(5)
       + 0.51337273 w(4) + 0.28488487 w(3) + 0.01561261 w(2) + 1.13594277 w(1)
       + 0.43891363 w(0) - z - pm(3) <= 0.79523834
 c27:  tp(3) - pp(3) <= 0
 c28:  tp(3) - 161 s(3) <= 0
 c29:  tp(3) - pp(3) - 161 s(3) >= -161
 c30:  tm(3) - pm(3) <= 0
 c31:  tm(3) - 77 s(3) <= 0
 c32:  tm(3) - pm(3) - 77 s(3) >= -77
 c33:  - 0.59925859 w(8) - 0.20975565 w(7) - 0.32081535 w(6) - 0.66407245 w(5)
       + 0.77703761 w(4) + 1.41487858 w(3) + 0.0082974 w(2) + 0.14594058 w(1)
       - 0.21022742 w(0) + z - pp(4) <= 1.61718458
 c34:  0.59925859 w(8) + 0.20975565 w(7) + 0.32081535 w(6) + 0.66407245 w(5)
       - 0.77703761 w(4) - 1.41487858 w(3) - 0.0082974 w(2) - 0.14594058 w(1)
       + 0.21022742 w(0) - z - pm(4) <= -1.21718458
 c35:  tp(4) - pp(4) <= 0
 c36:  tp(4) - 161 s(4) <= 0
 c37:  tp(4) - pp(4) - 161 s(4) >= -161
 c38:  tm(4) - pm(4) <= 0
 c39:  tm(4) - 77 s(4) <= 0
 c40:  tm(4) - pm(4) - 77 s(4) >= -77
 c41:  0.05033528 w(8) - 0.57856835 w(7) - 1.33449613 w(6) + 0.04625246 w(5)
       - 1.26825717 w(4) + 0.0356986 w(3) - 1.08079942 w(2) - 0.47644377 w(1)
       + 0.22332909 w(0) + z - pp(5) <= -2.49841328
 c42:  - 0.05033528 w(8) + 0.57856835 w(7) + 1.33449613 w(6) - 0.04625246 w(5)
       + 1.26825717 w(4) - 0.0356986 w(3) + 1.08079942 w(2) + 0.47644377 w(1)
       - 0.22332909 w(0) - z - pm(5) <= 2.89841328
 c43:  tp(5) - pp(5) <= 0
 c44:  tp(5) - 161 s(5) <= 0
 c45:  tp(5) - pp(5) - 161 s(5) >= -161
 c46:  tm(5) - pm(5) <= 0
 c47:  tm(5) - 77 s(5) <= 0
 c48:  tm(5) - pm(5) - 77 s(5) >= -77
 c49:  1.25717891 w(8) + 0.38526709 w(7) - 0.02068124 w(6) + 1.32858624 w(5)
       - 1.08898961 w(4) - 0.34601064 w(3) - 0.15903638 w(2) + 1.60612689 w(1)
       - 0.39511466 w(0) + z - pp(6) <= 0.92333145
 c50:  - 1.25717891 w(8) - 0.38526709 w(7) + 0.02068124 w(6) - 1.32858624 w(5)
       + 1.08898961 w(4) + 0.34601064 w(3) + 0.15903638 w(2) - 1.60612689 w(1)
       + 0.39511466 w(0) - z - pm(6) <= -0.52333145
 c51:  tp(6) - pp(6) <= 0
 c52:  tp(6) - 161 s(6) <= 0
 c53:  tp(6) - pp(6) - 161 s(6) >= -161
 c54:  tm(6) - pm(6) <= 0
 c55:  tm(6) - 77 s(6) <= 0
 c56:  tm(6) - pm(6) - 77 s(6) >= -77
 c57:  - 0.15097518 w(8) + 1.2941263 w(7) - 0.11610171 w(6) - 0.58081523 w(5)
       + 0.70050863 w(4) - 0.24446588 w(3) - 0.50073241 w(2) - 1.00396222 w(1)
       - 0.28701604 w(0) + z - pp(7) <= -1.5780242
 c58:  0.15097518 w(8) - 1.2941263 w(7) + 0.11610171 w(6) + 0.58081523 w(5)
       - 0.70050863 w(4) + 0.24446588 w(3) + 0.50073241 w(2) + 1.00396222 w(1)
       + 0.28701604 w(0) - z - pm(7) <= 1.9780242
 c59:  tp(7) - pp(7) <= 0
 c60:  tp(7) - 161 s(7) <= 0
 c61:  tp(7) - pp(7) - 161 s(7) >= -161
 c62:  tm(7) - pm(7) <= 0
 c63:  tm(7) - 77 s(7) <= 0
 c64:  tm(7) - pm(7) - 77 s(7) >= -77
 c65:  1.04183632 w(8) + 0.92840301 w(7) - 0.8211023 w(6) + 0.50548181 w(5)
       - 0.61112036 w(4) + 0.71692125 w(3) - 0.92281344 w(2) + 1.33080672 w(1)
       - 1.41868655 w(0) + z - pp(8) <= 0.7299316
 c66:  - 1.04183632 w(8) - 0.92840301 w(7) + 0.8211023 w(6) - 0.50548181 w(5)
       + 0.61112036 w(4) - 0.71692125 w(3) + 0.92281344 w(2) - 1.33080672 w(1)
       + 1.41868655 w(0) - z - pm(8) <= -0.3299316
 c67:  tp(8) - pp(8) <= 0
 c68:  tp(8) - 161 s(8) <= 0
 c69:  tp(8) - pp(8) - 161 s(8) >= -161
 c70:  tm(8) - pm(8) <= 0
 c71:  tm(8) - 77 s(8) <= 0
 c72:  tm(8) - pm(8) - 77 s(8) >= -77
 c73:  0.93804208 w(8) - 1.08182207 w(7) - 2.29881538 w(6) - 0.19227908 w(5)
       - 0.47081019 w(4) - 1.19251972 w(3) - 0.2451104 w(2) + 1.07055905 w(1)
       - 0.23791555 w(0) + z - pp(9) <= -1.33471447
 c74:  - 0.93804208 w(8) + 1.08182207 w(7) + 2.29881538 w(6) + 0.19227908 w(5)
       + 0.47081019 w(4) + 1.19251972 w(3) + 0.2451104 w(2) - 1.07055905 w(1)
       + 0.23791555 w(0) - z - pm(9) <= 1.73471447
 c75:  tp(9) - pp(9) <= 0
 c76:  tp(9) - 161 s(9) <= 0
 c77:  tp(9) - pp(9) - 161 s(9) >= -161
 c78:  tm(9) - pm(9) <= 0
 c79:  tm(9) - 77 s(9) <= 0
 c80:  tm(9) - pm(9) - 77 s(9) >= -77
 c81:  - 1.66493286 w(8) - 0.69570272 w(7) + 1.72843587 w(6) + 1.3329091 w(5)
       + 1.20655093 w(4) + 0.57947086 w(3) - 0.05690262 w(2) + 1.05298844 w(1)
       + 0.6687099 w(0) + z - pp(10) <= 5.30877855
 c82:  1.66493286 w(8) + 0.69570272 w(7) - 1.72843587 w(6) - 1.3329091 w(5)
       - 1.20655093 w(4) - 0.57947086 w(3) + 0.05690262 w(2) - 1.05298844 w(1)
       - 0.6687099 w(0) - z - pm(10) <= -4.90877855
 c83:  tp(10) - pp(10) <= 0
 c84:  tp(10) - 161 s(10) <= 0
 c85:  tp(10) - pp(10) - 161 s(10) >= -161
 c86:  tm(10) - pm(10) <= 0
 c87:  tm(10) - 77 s(10) <= 0
 c88:  tm(10) - pm(10) - 77 s(10) >= -77
 c89:  - 1.15795786 w(8) - 0.38040539 w(7) + 0.6256574 w(6) + 0.03046576 w(5)
       - 0.58066343 w(4) + 1.42132274 w(3) - 0.70370519 w(2) + 0.46183721 w(1)
       - 0.43854571 w(0) + z - pp(11) <= 0.52900827
 c90:  1.15795786 w(8) + 0.38040539 w(7) - 0.6256574 w(6) - 0.03046576 w(5)
       + 0.58066343 w(4) - 1.42132274 w(3) + 0.70370519 w(2) - 0.46183721 w(1)
       + 0.43854571 w(0) - z - pm(11) <= -0.12900827
 c91:  tp(11) - pp(11) <= 0
 c92:  tp(11) - 161 s(11) <= 0
 c93:  tp(11) - pp(11) - 161 s(11) >= -161
 c94:  tm(11) - pm(11) <= 0
 c95:  tm(11) - 77 s(11) <= 0
 c96:  tm(11) - pm(11) - 77 s(11) >= -77
 c97:  - 1.28534052 w(8) + 0.14559493 w(7) + 0.54874028 w(6) - 0.55459955 w(5)
       - 9.76554963 w(4) - 12.54614867 w(3) - 9.22865283 w(2) + 8.66671317 w(1)
       + 11.33822379 w(0) + z - pp(12) <= -11.38523796
 c98:  1.28534052 w(8) - 0.14559493 w(7) - 0.54874028 w(6) + 0.55459955 w(5)
       + 9.76554963 w(4) + 12.54614867 w(3) + 9.22865283 w(2) - 8.66671317 w(1)
       - 11.33822379 w(0) - z - pm(12) <= 11.78523796
 c99:  tp(12) - pp(12) <= 0
 c100: tp(12) - 161 s(12) <= 0
 c101: tp(12) - pp(12) - 161 s(12) >= -161
 c102: tm(12) - pm(12) <= 0
 c103: tm(12) - 77 s(12) <= 0
 c104: tm(12) - pm(12) - 77 s(12) >= -77
 c105: - 2.61740775 w(8) - 0.07032427 w(7) - 1.2879064 w(6) + 0.95342232 w(5)
       + 3.76381439 w(4) + 0.53254828 w(3) + 0.31468996 w(2) + 0.62094619 w(1)
       + 0.5158538 w(0) + z - pp(13) <= 6.66572211
 c106: 2.61740775 w(8) + 0.07032427 w(7) + 1.2879064 w(6) - 0.95342232 w(5)
       - 3.76381439 w(4) - 0.53254828 w(3) - 0.31468996 w(2) - 0.62094619 w(1)
       - 0.5158538 w(0) - z - pm(13) <= -6.26572211
 c107: tp(13) - pp(13) <= 0
 c108: tp(13) - 161 s(13) <= 0
 c109: tp(13) - pp(13) - 161 s(13) >= -161
 c110: tm(13) - pm(13) <= 0
 c111: tm(13) - 77 s(13) <= 0
 c112: tm(13) - pm(13) - 77 s(13) >= -77
 c113: 0.16359078 w(8) - 0.25045762 w(7) - 0.32893375 w(6) + 0.65517878 w(5)
       + 0.93910011 w(4) + 0.32155662 w(3) - 0.06204128 w(2) + 0.77083199 w(1)
       + 0.4107394 w(0) + z - pp(14) <= 2.78507104
 c114: - 0.16359078 w(8) + 0.25045762 w(7) + 0.32893375 w(6) - 0.65517878 w(5)
       - 0.93910011 w(4) - 0.32155662 w(3) + 0.06204128 w(2) - 0.77083199 w(1)
       - 0.4107394 w(0) - z - pm(14) <= -2.38507104
 c115: tp(14) - pp(14) <= 0
 c116: tp(14) - 161 s(14) <= 0
 c117: tp(14) - pp(14) - 161 s(14) >= -161
 c118: tm(14) - pm(14) <= 0
 c119: tm(14) - 77 s(14) <= 0
 c120: tm(14) - pm(14) - 77 s(14) >= -77
 c121: - 0.52766869 w(8) - 0.28220653 w(7) - 0.99822878 w(6) + 0.85634218 w(5)
       - 0.76692989 w(4) - 0.54226243 w(3) + 0.57652042 w(2) - 1.60673147 w(1)
       + 0.42858332 w(0) + z - pp(15) <= 0.47063401
 c122: 0.52766869 w(8) + 0.28220653 w(7) + 0.99822878 w(6) - 0.85634218 w(5)
       + 0.76692989 w(4) + 0.54226243 w(3) - 0.57652042 w(2) + 1.60673147 w(1)
       - 0.42858332 w(0) - z - pm(15) <= -0.07063401
 c123: tp(15) - pp(15) <= 0
 c124: tp(15) - 161 s(15) <= 0
 c125: tp(15) - pp(15) - 161 s(15) >= -161
 c126: tm(15) - pm(15) <= 0
 c127: tm(15) - 77 s(15) <= 0
 c128: tm(15) - pm(15) - 77 s(15) >= -77
 c129: - 2.04355256 w(8) + 0.16916298 w(7) - 0.58981338 w(6) - 0.43328025 w(5)
       + 0.69872157 w(4) + 2.01108256 w(3) + 1.3845035 w(2) + 0.32563153 w(1)
       + 0.30890281 w(0) + z - pp(16) <= 5.17990495
 c130: 2.04355256 w(8) - 0.16916298 w(7) + 0.58981338 w(6) + 0.43328025 w(5)
       - 0.69872157 w(4) - 2.01108256 w(3) - 1.3845035 w(2) - 0.32563153 w(1)
       - 0.30890281 w(0) - z - pm(16) <= -4.77990495
 c131: tp(16) - pp(16) <= 0
 c132: tp(16) - 161 s(16) <= 0
 c133: tp(16) - pp(16) - 161 s(16) >= -161
 c134: tm(16) - pm(16) <= 0
 c135: tm(16) - 77 s(16) <= 0
 c136: tm(16) - pm(16) - 77 s(16) >= -77
 c137: - 0.31598642 w(8) + 0.27066707 w(7) - 0.22111201 w(6) + 1.87350187 w(5)
       - 9.75769882 w(4) - 8.54066545 w(3) - 7.5291989 w(2) + 12.19562774 w(1)
       + 11.28810916 w(0) + z - pp(17) <= -6.66717244
 c138: 0.31598642 w(8) - 0.27066707 w(7) + 0.22111201 w(6) - 1.87350187 w(5)
       + 9.75769882 w(4) + 8.54066545 w(3) + 7.5291989 w(2) - 12.19562774 w(1)
       - 11.28810916 w(0) - z - pm(17) <= 7.06717244
 c139: tp(17) - pp(17) <= 0
 c140: tp(17) - 161 s(17) <= 0
 c141: tp(17) - pp(17) - 161 s(17) >= -161
 c142: tm(17) - pm(17) <= 0
 c143: tm(17) - 77 s(17) <= 0
 c144: tm(17) - pm(17) - 77 s(17) >= -77
 c145: 0.09325385 w(8) - 0.10351212 w(7) + 1.6443022 w(6) - 0.73716967 w(5)
       + 0.47909305 w(4) + 0.19639067 w(3) + 1.37394281 w(2) - 1.19918466 w(1)
       - 2.13038212 w(0) + z - pp(18) <= -0.22936758
 c146: - 0.09325385 w(8) + 0.10351212 w(7) - 1.6443022 w(6) + 0.73716967 w(5)
       - 0.47909305 w(4) - 0.19639067 w(3) - 1.37394281 w(2) + 1.19918466 w(1)
       + 2.13038212 w(0) - z - pm(18) <= 0.62936758
 c147: tp(18) - pp(18) <= 0
 c148: tp(18) - 161 s(18) <= 0
 c149: tp(18) - pp(18) - 161 s(18) >= -161
 c150: tm(18) - pm(18) <= 0
 c151: tm(18) - 77 s(18) <= 0
 c152: tm(18) - pm(18) - 77 s(18) >= -77
 c153: - 1.56112155 w(8) - 1.41288193 w(7) - 1.33141145 w(6) + 1.60381274 w(5)
       + 0.93430711 w(4) - 1.18459061 w(3) + 1.29705072 w(2) - 1.86714903 w(1)
       + 0.24008022 w(0) + z - pp(19) <= 1.1928258
 c154: 1.56112155 w(8) + 1.41288193 w(7) + 1.33141145 w(6) - 1.60381274 w(5)
       - 0.93430711 w(4) + 1.18459061 w(3) - 1.29705072 w(2) + 1.86714903 w(1)
       - 0.24008022 w(0) - z - pm(19) <= -0.7928258
 c155: tp(19) - pp(19) <= 0
 c156: tp(19) - 161 s(19) <= 0
 c157: tp(19) - pp(19) - 161 s(19) >= -161
 c158: tm(19) - pm(19) <= 0
 c159: tm(19) - 77 s(19) <= 0
 c160: tm(19) - pm(19) - 77 s(19) >= -77
 c161: 0.9042878 w(8) - 0.28198689 w(7) - 0.9305649 w(6) + 1.18073825 w(5)
       - 0.08230986 w(4) + 0.68289216 w(3) - 0.34959431 w(2) + 1.23194523 w(1)
       - 1.29737185 w(0) + z - pp(20) <= 2.69159791
 c162: - 0.9042878 w(8) + 0.28198689 w(7) + 0.9305649 w(6) - 1.18073825 w(5)
       + 0.08230986 w(4) - 0.68289216 w(3) + 0.34959431 w(2) - 1.23194523 w(1)
       + 1.29737185 w(0) - z - pm(20) <= -2.29159791
 c163: tp(20) - pp(20) <= 0
 c164: tp(20) - 161 s(20) <= 0
 c165: tp(20) - pp(20) - 161 s(20) >= -161
 c166: tm(20) - pm(20) <= 0
 c167: tm(20) - 77 s(20) <= 0
 c168: tm(20) - pm(20) - 77 s(20) >= -77
 c169: - 0.29404432 w(8) - 1.45028581 w(7) - 0.3088621 w(6) - 2.43840454 w(5)
       - 0.7453673 w(4) - 0.22339746 w(3) + 1.07664916 w(2) - 0.83317288 w(1)
       - 1.01696222 w(0) + z - pp(21) <= -3.85971311
 c170: 0.29404432 w(8) + 1.45028581 w(7) + 0.3088621 w(6) + 2.43840454 w(5)
       + 0.7453673 w(4) + 0.22339746 w(3) - 1.07664916 w(2) + 0.83317288 w(1)
       + 1.01696222 w(0) - z - pm(21) <= 4.25971311
 c171: tp(21) - pp(21) <= 0
 c172: tp(21) - 161 s(21) <= 0
 c173: tp(21) - pp(21) - 161 s(21) >= -161
 c174: tm(21) - pm(21) <= 0
 c175: tm(21) - 77 s(21) <= 0
 c176: tm(21) - pm(21) - 77 s(21) >= -77
 c177: 1.29202091 w(8) + 0.03244509 w(7) + 0.0038894 w(6) + 0.24944482 w(5)
       - 0.77280032 w(4) - 0.27852888 w(3) + 0.13997645 w(2) + 1.46001135 w(1)
       - 1.97918105 w(0) + z - pp(22) <= -0.67416391
 c178: - 1.29202091 w(8) - 0.03244509 w(7) - 0.0038894 w(6) - 0.24944482 w(5)
       + 0.77280032 w(4) + 0.27852888 w(3) - 0.13997645 w(2) - 1.46001135 w(1)
       + 1.97918105 w(0) - z - pm(22) <= 1.07416391
 c179: tp(22) - pp(22) <= 0
 c180: tp(22) - 161 s(22) <= 0
 c181: tp(22) - pp(22) - 161 s(22) >= -161
 c182: tm(22) - pm(22) <= 0
 c183: tm(22) - 77 s(22) <= 0
 c184: tm(22) - pm(22) - 77 s(22) >= -77
 c185: - 0.3050997 w(8) + 2.15802514 w(7) + 1.56424685 w(6) - 0.91189539 w(5)
       + 0.30633369 w(4) - 0.73274659 w(3) + 0.62253916 w(2) - 0.40425989 w(1)
       - 0.19064844 w(0) + z - pp(23) <= 0.56303721
 c186: 0.3050997 w(8) - 2.15802514 w(7) - 1.56424685 w(6) + 0.91189539 w(5)
       - 0.30633369 w(4) + 0.73274659 w(3) - 0.62253916 w(2) + 0.40425989 w(1)
       + 0.19064844 w(0) - z - pm(23) <= -0.16303721
 c187: tp(23) - pp(23) <= 0
 c188: tp(23) - 161 s(23) <= 0
 c189: tp(23) - pp(23) - 161 s(23) >= -161
 c190: tm(23) - pm(23) <= 0
 c191: tm(23) - 77 s(23) <= 0
 c192: tm(23) - pm(23) - 77 s(23) >= -77
 c193: - 3.40720864 w(8) + 0.02499712 w(7) - 0.71888874 w(6) - 1.20417825 w(5)
       + 0.27000536 w(4) + 0.39093336 w(3) + 0.06873533 w(2) - 0.41776809 w(1)
       - 0.77021819 w(0) + z - pp(24) <= -1.91621033
 c194: 3.40720864 w(8) - 0.02499712 w(7) + 0.71888874 w(6) + 1.20417825 w(5)
       - 0.27000536 w(4) - 0.39093336 w(3) - 0.06873533 w(2) + 0.41776809 w(1)
       + 0.77021819 w(0) - z - pm(24) <= 2.31621033
 c195: tp(24) - pp(24) <= 0
 c196: tp(24) - 161 s(24) <= 0
 c197: tp(24) - pp(24) - 161 s(24) >= -161
 c198: tm(24) - pm(24) <= 0
 c199: tm(24) - 77 s(24) <= 0
 c200: tm(24) - pm(24) - 77 s(24) >= -77
 c201: 0.56911932 w(8) + 0.39954555 w(7) - 1.44008836 w(6) - 2.07598238 w(5)
       + 1.18375748 w(4) + 0.60062701 w(3) - 1.81939755 w(2) - 1.52126826 w(1)
       - 0.5457203 w(0) + z - pp(25) <= -4.30109324
 c202: - 0.56911932 w(8) - 0.39954555 w(7) + 1.44008836 w(6) + 2.07598238 w(5)
       - 1.18375748 w(4) - 0.60062701 w(3) + 1.81939755 w(2) + 1.52126826 w(1)
       + 0.5457203 w(0) - z - pm(25) <= 4.70109324
 c203: tp(25) - pp(25) <= 0
 c204: tp(25) - 161 s(25) <= 0
 c205: tp(25) - pp(25) - 161 s(25) >= -161
 c206: tm(25) - pm(25) <= 0
 c207: tm(25) - 77 s(25) <= 0
 c208: tm(25) - pm(25) - 77 s(25) >= -77
 c209: - 1.54768271 w(8) - 0.66892744 w(7) + 0.27283318 w(6) - 0.87745381 w(5)
       - 1.26099752 w(4) - 1.33189982 w(3) + 1.14350686 w(2) - 0.66301778 w(1)
       - 1.84771876 w(0) + z - pp(26) <= -2.56193366
 c210: 1.54768271 w(8) + 0.66892744 w(7) - 0.27283318 w(6) + 0.87745381 w(5)
       + 1.26099752 w(4) + 1.33189982 w(3) - 1.14350686 w(2) + 0.66301778 w(1)
       + 1.84771876 w(0) - z - pm(26) <= 2.96193366
 c211: tp(26) - pp(26) <= 0
 c212: tp(26) - 161 s(26) <= 0
 c213: tp(26) - pp(26) - 161 s(26) >= -161
 c214: tm(26) - pm(26) <= 0
 c215: tm(26) - 77 s(26) <= 0
 c216: tm(26) - pm(26) - 77 s(26) >= -77
 c217: - 0.04586082 w(8) + 0.1184191 w(7) - 0.44594039 w(6) - 1.84948827 w(5)
       - 1.39873258 w(4) - 0.80844232 w(3) + 0.87429092 w(2) - 3.25649278 w(1)
       - 0.63733463 w(0) + z - pp(27) <= -7.4561261
 c218: 0.04586082 w(8) - 0.1184191 w(7) + 0.44594039 w(6) + 1.84948827 w(5)
       + 1.39873258 w(4) + 0.80844232 w(3) - 0.87429092 w(2) + 3.25649278 w(1)
       + 0.63733463 w(0) - z - pm(27) <= 7.8561261
 c219: tp(27) - pp(27) <= 0
 c220: tp(27) - 161 s(27) <= 0
 c221: tp(27) - pp(27) - 161 s(27) >= -161
 c222: tm(27) - pm(27) <= 0
 c223: tm(27) - 77 s(27) <= 0
 c224: tm(27) - pm(27) - 77 s(27) >= -77
 c225: - 1.38636221 w(8) + 2.07053817 w(7) + 0.40175915 w(6) + 0.26016466 w(5)
       - 1.01479142 w(4) + 0.2978669 w(3) + 0.30596197 w(2) + 1.52174055 w(1)
       + 0.48914899 w(0) + z - pp(28) <= 1.43116161
 c226: 1.38636221 w(8) - 2.07053817 w(7) - 0.40175915 w(6) - 0.26016466 w(5)
       + 1.01479142 w(4) - 0.2978669 w(3) - 0.30596197 w(2) - 1.52174055 w(1)
       - 0.48914899 w(0) - z - pm(28) <= -1.03116161
 c227: tp(28) - pp(28) <= 0
 c228: tp(28) - 161 s(28) <= 0
 c229: tp(28) - pp(28) - 161 s(28) >= -161
 c230: tm(28) - pm(28) <= 0
 c231: tm(28) - 77 s(28) <= 0
 c232: tm(28) - pm(28) - 77 s(28) >= -77
 c233: - 1.49983469 w(8) - 0.65100831 w(7) + 0.38291859 w(6) - 0.6171172 w(5)
       - 0.29417988 w(4) + 0.62945165 w(3) + 0.76934837 w(2) - 2.35094563 w(1)
       - 0.9141738 w(0) + z - pp(29) <= -2.99860339
 c234: 1.49983469 w(8) + 0.65100831 w(7) - 0.38291859 w(6) + 0.6171172 w(5)
       + 0.29417988 w(4) - 0.62945165 w(3) - 0.76934837 w(2) + 2.35094563 w(1)
       + 0.9141738 w(0) - z - pm(29) <= 3.39860339
 c235: tp(29) - pp(29) <= 0
 c236: tp(29) - 161 s(29) <= 0
 c237: tp(29) - pp(29) - 161 s(29) >= -161
 c238: tm(29) - pm(29) <= 0
 c239: tm(29) - 77 s(29) <= 0
 c240: tm(29) - pm(29) - 77 s(29) >= -77
 c241: - 1.154648 w(8) - 0.2734262 w(7) + 0.86422602 w(6) - 1.48078548 w(5)
       + 1.25318388 w(4) + 0.66816099 w(3) - 0.20293262 w(2) - 0.42590153 w(1)
       - 1.48193735 w(0) + z - pp(30) <= -1.32793521
 c242: 1.154648 w(8) + 0.2734262 w(7) - 0.86422602 w(6) + 1.48078548 w(5)
       - 1.25318388 w(4) - 0.66816099 w(3) + 0.20293262 w(2) + 0.42590153 w(1)
       + 1.48193735 w(0) - z - pm(30) <= 1.72793521
 c243: tp(30) - pp(30) <= 0
 c244: tp(30) - 161 s(30) <= 0
 c245: tp(30) - pp(30) - 161 s(30) >= -161
 c246: tm(30) - pm(30) <= 0
 c247: tm(30) - 77 s(30) <= 0
 c248: tm(30) - pm(30) - 77 s(30) >= -77
 c249: 0.61691771 w(8) - 2.25582103 w(7) + 0.1983849 w(6) + 0.01809748 w(5)
       + 0.93842044 w(4) - 0.83909749 w(3) - 0.35639954 w(2) + 2.49061763 w(1)
       + 1.51011703 w(0) + z - pp(31) <= 3.61527611
 c250: - 0.61691771 w(8) + 2.25582103 w(7) - 0.1983849 w(6) - 0.01809748 w(5)
       - 0.93842044 w(4) + 0.83909749 w(3) + 0.35639954 w(2) - 2.49061763 w(1)
       - 1.51011703 w(0) - z - pm(31) <= -3.21527611
 c251: tp(31) - pp(31) <= 0
 c252: tp(31) - 161 s(31) <= 0
 c253: tp(31) - pp(31) - 161 s(31) >= -161
 c254: tm(31) - pm(31) <= 0
 c255: tm(31) - 77 s(31) <= 0
 c256: tm(31) - pm(31) - 77 s(31) >= -77
 c257: - 0.08845342 w(8) + 0.0515535 w(7) - 1.11637146 w(6) - 0.22400727 w(5)
       - 8.17901358 w(4) + 9.13481651 w(3) - 9.09646302 w(2) - 8.04523376 w(1)
       + 10.13217637 w(0) + z - pp(32) <= -4.77023049
 c258: 0.08845342 w(8) - 0.0515535 w(7) + 1.11637146 w(6) + 0.22400727 w(5)
       + 8.17901358 w(4) - 9.13481651 w(3) + 9.09646302 w(2) + 8.04523376 w(1)
       - 10.13217637 w(0) - z - pm(32) <= 5.17023049
 c259: tp(32) - pp(32) <= 0
 c260: tp(32) - 161 s(32) <= 0
 c261: tp(32) - pp(32) - 161 s(32) >= -161
 c262: tm(32) - pm(32) <= 0
 c263: tm(32) - 77 s(32) <= 0
 c264: tm(32) - pm(32) - 77 s(32) >= -77
 c265: 1.66696982 w(8) + 1.01016378 w(7) + 0.91985854 w(6) + 0.25015608 w(5)
       - 0.42168608 w(4) + 0.24329195 w(3) + 0.270541 w(2) - 0.75918648 w(1)
       + 0.28220421 w(0) + z - pp(33) <= -0.1307684
 c266: - 1.66696982 w(8) - 1.01016378 w(7) - 0.91985854 w(6) - 0.25015608 w(5)
       + 0.42168608 w(4) - 0.24329195 w(3) - 0.270541 w(2) + 0.75918648 w(1)
       - 0.28220421 w(0) - z - pm(33) <= 0.5307684
 c267: tp(33) - pp(33) <= 0
 c268: tp(33) - 161 s(33) <= 0
 c269: tp(33) - pp(33) - 161 s(33) >= -161
 c270: tm(33) - pm(33) <= 0
 c271: tm(33) - 77 s(33) <= 0
 c272: tm(33) - pm(33) - 77 s(33) >= -77
 c273: 0.71078726 w(8) - 0.22815229 w(7) + 2.24053426 w(6) - 1.06686965 w(5)
       - 0.8803396 w(4) - 1.36518768 w(3) + 1.31692062 w(2) + 0.74373763 w(1)
       + 0.78401502 w(0) + z - pp(34) <= -0.6087491
 c274: - 0.71078726 w(8) + 0.22815229 w(7) - 2.24053426 w(6) + 1.06686965 w(5)
       + 0.8803396 w(4) + 1.36518768 w(3) - 1.31692062 w(2) - 0.74373763 w(1)
       - 0.78401502 w(0) - z - pm(34) <= 1.0087491
 c275: tp(34) - pp(34) <= 0
 c276: tp(34) - 161 s(34) <= 0
 c277: tp(34) - pp(34) - 161 s(34) >= -161
 c278: tm(34) - pm(34) <= 0
 c279: tm(34) - 77 s(34) <= 0
 c280: tm(34) - pm(34) - 77 s(34) >= -77
 c281: - 3.65437907 w(8) - 0.72337544 w(7) + 0.34950571 w(6) + 0.17102756 w(5)
       + 1.41159122 w(4) + 0.45003187 w(3) + 0.94781208 w(2) - 0.14901985 w(1)
       - 0.01267402 w(0) + z - pp(35) <= 2.68763255
 c282: 3.65437907 w(8) + 0.72337544 w(7) - 0.34950571 w(6) - 0.17102756 w(5)
       - 1.41159122 w(4) - 0.45003187 w(3) - 0.94781208 w(2) + 0.14901985 w(1)
       + 0.01267402 w(0) - z - pm(35) <= -2.28763255
 c283: tp(35) - pp(35) <= 0
 c284: tp(35) - 161 s(35) <= 0
 c285: tp(35) - pp(35) - 161 s(35) >= -161
 c286: tm(35) - pm(35) <= 0
 c287: tm(35) - 77 s(35) <= 0
 c288: tm(35) - pm(35) - 77 s(35) >= -77
 c289: - 0.56669435 w(8) + 0.08284354 w(7) - 0.04196611 w(6) - 0.33936941 w(5)
       + 1.61665916 w(4) + 1.48668196 w(3) + 0.81470585 w(2) + 1.83896716 w(1)
       - 0.84715607 w(0) + z - pp(36) <= 6.56786598
 c290: 0.56669435 w(8) - 0.08284354 w(7) + 0.04196611 w(6) + 0.33936941 w(5)
       - 1.61665916 w(4) - 1.48668196 w(3) - 0.81470585 w(2) - 1.83896716 w(1)
       + 0.84715607 w(0) - z - pm(36) <= -6.16786598
 c291: tp(36) - pp(36) <= 0
 c292: tp(36) - 161 s(36) <= 0
 c293: tp(36) - pp(36) - 161 s(36) >= -161
 c294: tm(36) - pm(36) <= 0
 c295: tm(36) - 77 s(36) <= 0
 c296: tm(36) - pm(36) - 77 s(36) >= -77
 c297: - 0.44171358 w(8) - 2.1002534 w(7) - 2.61609625 w(6) + 1.56441975 w(5)
       + 0.54042481 w(4) - 0.6405885 w(3) - 1.07092162 w(2) - 0.85442668 w(1)
       - 0.47216146 w(0) + z - pp(37) <= -0.55823605
 c298: 0.44171358 w(8) + 2.1002534 w(7) + 2.61609625 w(6) - 1.56441975 w(5)
       - 0.54042481 w(4) + 0.6405885 w(3) + 1.07092162 w(2) + 0.85442668 w(1)
       + 0.47216146 w(0) - z - pm(37) <= 0.95823605
 c299: tp(37) - pp(37) <= 0
 c300: tp(37) - 161 s(37) <= 0
 c301: tp(37) - pp(37) - 161 s(37) >= -161
 c302: tm(37) - pm(37) <= 0
 c303: tm(37) - 77 s(37) <= 0
 c304: tm(37) - pm(37) - 77 s(37) >= -77
 c305: 1.97807024 w(8) + 0.84452877 w(7) - 0.59391354 w(6) + 0.04010717 w(5)
       + 1.6021879 w(4) + 0.53814681 w(3) - 0.64596692 w(2) + 0.95923679 w(1)
       + 1.13122155 w(0) + z - pp(38) <= 4.15547807
 c306: - 1.97807024 w(8) - 0.84452877 w(7) + 0.59391354 w(6) - 0.04010717 w(5)
       - 1.6021879 w(4) - 0.53814681 w(3) + 0.64596692 w(2) - 0.95923679 w(1)
       - 1.13122155 w(0) - z - pm(38) <= -3.75547807
 c307: tp(38) - pp(38) <= 0
 c308: tp(38) - 161 s(38) <= 0
 c309: tp(38) - pp(38) - 161 s(38) >= -161
 c310: tm(38) - pm(38) <= 0
 c311: tm(38) - 77 s(38) <= 0
 c312: tm(38) - pm(38) - 77 s(38) >= -77
 c313: 1.7189553 w(8) + 1.75195793 w(7) - 0.14852807 w(6) + 0.28968893 w(5)
       - 0.95897102 w(4) + 1.35678003 w(3) + 1.3407922 w(2) - 1.52743567 w(1)
       - 1.03477131 w(0) + z - pp(39) <= -0.31694506
 c314: - 1.7189553 w(8) - 1.75195793 w(7) + 0.14852807 w(6) - 0.28968893 w(5)
       + 0.95897102 w(4) - 1.35678003 w(3) - 1.3407922 w(2) + 1.52743567 w(1)
       + 1.03477131 w(0) - z - pm(39) <= 0.71694506
 c315: tp(39) - pp(39) <= 0
 c316: tp(39) - 161 s(39) <= 0
 c317: tp(39) - pp(39) - 161 s(39) >= -161
 c318: tm(39) - pm(39) <= 0
 c319: tm(39) - 77 s(39) <= 0
 c320: tm(39) - pm(39) - 77 s(39) >= -77
 c321: - 0.83600367 w(8) - 1.05505591 w(7) + 0.28623001 w(6) - 0.59507117 w(5)
       - 0.85763369 w(4) + 0.5222017 w(3) - 0.19089615 w(2) - 0.41095481 w(1)
       - 0.17215741 w(0) + z - pp(40) <= -1.54912934
 c322: 0.83600367 w(8) + 1.05505591 w(7) - 0.28623001 w(6) + 0.59507117 w(5)
       + 0.85763369 w(4) - 0.5222017 w(3) + 0.19089615 w(2) + 0.41095481 w(1)
       + 0.17215741 w(0) - z - pm(40) <= 1.94912934
 c323: tp(40) - pp(40) <= 0
 c324: tp(40) - 161 s(40) <= 0
 c325: tp(40) - pp(40) - 161 s(40) >= -161
 c326: tm(40) - pm(40) <= 0
 c327: tm(40) - 77 s(40) <= 0
 c328: tm(40) - pm(40) - 77 s(40) >= -77
 c329: 1.11163813 w(8) + 0.36947323 w(7) - 1.50916431 w(6) + 1.95688471 w(5)
       - 0.82637371 w(4) - 1.55702847 w(3) - 0.96941271 w(2) - 0.22525117 w(1)
       + 0.36552637 w(0) + z - pp(41) <= -0.39473301
 c330: - 1.11163813 w(8) - 0.36947323 w(7) + 1.50916431 w(6) - 1.95688471 w(5)
       + 0.82637371 w(4) + 1.55702847 w(3) + 0.96941271 w(2) + 0.22525117 w(1)
       - 0.36552637 w(0) - z - pm(41) <= 0.79473301
 c331: tp(41) - pp(41) <= 0
 c332: tp(41) - 161 s(41) <= 0
 c333: tp(41) - pp(41) - 161 s(41) >= -161
 c334: tm(41) - pm(41) <= 0
 c335: tm(41) - 77 s(41) <= 0
 c336: tm(41) - pm(41) - 77 s(41) >= -77
 c337: - 0.78001588 w(8) - 0.38298213 w(7) + 1.30559943 w(6) + 0.19592897 w(5)
       - 1.24467858 w(4) - 0.20071283 w(3) - 0.35257265 w(2) + 0.0475335 w(1)
       + 2.00240631 w(0) + z - pp(42) <= 1.35234243
 c338: 0.78001588 w(8) + 0.38298213 w(7) - 1.30559943 w(6) - 0.19592897 w(5)
       + 1.24467858 w(4) + 0.20071283 w(3) + 0.35257265 w(2) - 0.0475335 w(1)
       - 2.00240631 w(0) - z - pm(42) <= -0.95234243
 c339: tp(42) - pp(42) <= 0
 c340: tp(42) - 161 s(42) <= 0
 c341: tp(42) - pp(42) - 161 s(42) >= -161
 c342: tm(42) - pm(42) <= 0
 c343: tm(42) - 77 s(42) <= 0
 c344: tm(42) - pm(42) - 77 s(42) >= -77
 c345: 0.06105945 w(8) - 1.49903684 w(7) + 0.09989345 w(6) - 1.6511437 w(5)
       + 0.14605571 w(4) + 0.3531107 w(3) - 0.28111127 w(2) + 1.06002879 w(1)
       - 0.70585547 w(0) + z - pp(43) <= -1.42098658
 c346: - 0.06105945 w(8) + 1.49903684 w(7) - 0.09989345 w(6) + 1.6511437 w(5)
       - 0.14605571 w(4) - 0.3531107 w(3) + 0.28111127 w(2) - 1.06002879 w(1)
       + 0.70585547 w(0) - z - pm(43) <= 1.82098658
 c347: tp(43) - pp(43) <= 0
 c348: tp(43) - 161 s(43) <= 0
 c349: tp(43) - pp(43) - 161 s(43) >= -161
 c350: tm(43) - pm(43) <= 0
 c351: tm(43) - 77 s(43) <= 0
 c352: tm(43) - pm(43) - 77 s(43) >= -77
 c353: 0.0056862 w(8) - 0.40767609 w(7) + 1.42901434 w(6) + 0.17648263 w(5)
       - 0.11964791 w(4) - 0.80999046 w(3) + 0.20173604 w(2) + 0.13298182 w(1)
       - 0.69962033 w(0) + z - pp(44) <= -0.82350174
 c354: - 0.0056862 w(8) + 0.40767609 w(7) - 1.42901434 w(6) - 0.17648263 w(5)
       + 0.11964791 w(4) + 0.80999046 w(3) - 0.20173604 w(2) - 0.13298182 w(1)
       + 0.69962033 w(0) - z - pm(44) <= 1.22350174
 c355: tp(44) - pp(44) <= 0
 c356: tp(44) - 161 s(44) <= 0
 c357: tp(44) - pp(44) - 161 s(44) >= -161
 c358: tm(44) - pm(44) <= 0
 c359: tm(44) - 77 s(44) <= 0
 c360: tm(44) - pm(44) - 77 s(44) >= -77
 c361: - 0.21201025 w(8) - 0.31424837 w(7) + 0.40712555 w(6) + 0.19015765 w(5)
       - 0.34979637 w(4) - 0.17787064 w(3) + 0.89159898 w(2) - 0.58847014 w(1)
       + 0.08288996 w(0) + z - pp(45) <= -0.00896158999999999
 c362: 0.21201025 w(8) + 0.31424837 w(7) - 0.40712555 w(6) - 0.19015765 w(5)
       + 0.34979637 w(4) + 0.17787064 w(3) - 0.89159898 w(2) + 0.58847014 w(1)
       - 0.08288996 w(0) - z - pm(45) <= 0.40896159
 c363: tp(45) - pp(45) <= 0
 c364: tp(45) - 161 s(45) <= 0
 c365: tp(45) - pp(45) - 161 s(45) >= -161
 c366: tm(45) - pm(45) <= 0
 c367: tm(45) - 77 s(45) <= 0
 c368: tm(45) - pm(45) - 77 s(45) >= -77
 c369: 1.47844901 w(8) - 0.83750634 w(7) - 1.57378349 w(6) + 0.28726076 w(5)
       + 1.87003865 w(4) + 0.86708824 w(3) + 0.58938816 w(2) + 0.29779237 w(1)
       - 1.64358957 w(0) + z - pp(46) <= 2.70697191
 c370: - 1.47844901 w(8) + 0.83750634 w(7) + 1.57378349 w(6) - 0.28726076 w(5)
       - 1.87003865 w(4) - 0.86708824 w(3) - 0.58938816 w(2) - 0.29779237 w(1)
       + 1.64358957 w(0) - z - pm(46) <= -2.30697191
 c371: tp(46) - pp(46) <= 0
 c372: tp(46) - 161 s(46) <= 0
 c373: tp(46) - pp(46) - 161 s(46) >= -161
 c374: tm(46) - pm(46) <= 0
 c375: tm(46) - 77 s(46) <= 0
 c376: tm(46) - pm(46) - 77 s(46) >= -77
 c377: - 0.08932728 w(8) + 0.14175832 w(7) + 0.66270943 w(6) - 0.28086415 w(5)
       + 10.75985411 w(4) - 12.15634947 w(3) - 10.83050203 w(2)
       - 11.62185286 w(1) - 10.60193556 w(0) + z - pp(47) <= -11.91059717
 c378: 0.08932728 w(8) - 0.14175832 w(7) - 0.66270943 w(6) + 0.28086415 w(5)
       - 10.75985411 w(4) + 12.15634947 w(3) + 10.83050203 w(2)
       + 11.62185286 w(1) + 10.60193556 w(0) - z - pm(47) <= 12.31059717
 c379: tp(47) - pp(47) <= 0
 c380: tp(47) - 161 s(47) <= 0
 c381: tp(47) - pp(47) - 161 s(47) >= -161
 c382: tm(47) - pm(47) <= 0
 c383: tm(47) - 77 s(47) <= 0
 c384: tm(47) - pm(47) - 77 s(47) >= -77
 c385: 0.90152995 w(8) + 0.09457072 w(7) - 1.99945048 w(6) + 0.26922397 w(5)
       + 0.68227898 w(4) - 1.58641325 w(3) + 0.28470751 w(2) + 2.93198881 w(1)
       - 0.1334255 w(0) + z - pp(48) <= 3.36315824
 c386: - 0.90152995 w(8) - 0.09457072 w(7) + 1.99945048 w(6) - 0.26922397 w(5)
       - 0.68227898 w(4) + 1.58641325 w(3) - 0.28470751 w(2) - 2.93198881 w(1)
       + 0.1334255 w(0) - z - pm(48) <= -2.96315824
 c387: tp(48) - pp(48) <= 0
 c388: tp(48) - 161 s(48) <= 0
 c389: tp(48) - pp(48) - 161 s(48) >= -161
 c390: tm(48) - pm(48) <= 0
 c391: tm(48) - 77 s(48) <= 0
 c392: tm(48) - pm(48) - 77 s(48) >= -77
 c393: 0.33136777 w(8) + 1.40154572 w(7) + 0.3877022 w(6) + 1.20731112 w(5)
       - 1.17993841 w(4) - 0.40696519 w(3) - 0.23679473 w(2) + 1.24099459 w(1)
       + 2.12186031 w(0) + z - pp(49) <= 1.50434379
 c394: - 0.33136777 w(8) - 1.40154572 w(7) - 0.3877022 w(6) - 1.20731112 w(5)
       + 1.17993841 w(4) + 0.40696519 w(3) + 0.23679473 w(2) - 1.24099459 w(1)
       - 2.12186031 w(0) - z - pm(49) <= -1.10434379
 c395: tp(49) - pp(49) <= 0
 c396: tp(49) - 161 s(49) <= 0
 c397: tp(49) - pp(49) - 161 s(49) >= -161
 c398: tm(49) - pm(49) <= 0
 c399: tm(49) - 77 s(49) <= 0
 c400: tm(49) - pm(49) - 77 s(49) >= -77
 c401: w(0) - 30 f(0) <= 0
 c402: w(0) + 10 f(0) >= 0
 c403: w(1) - 30 f(1) <= 0
 c404: w(1) + 10 f(1) >= 0
 c405: w(2) - 30 f(2) <= 0
 c406: w(2) + 10 f(2) >= 0
 c407: w(3) - 30 f(3) <= 0
 c408: w(3) + 10 f(3) >= 0
 c409: w(4) - 20 f(4) <= 0
 c410: w(4) + 20 f(4) >= 0
 c411: w(5) - 20 f(5) <= 0
 c412: w(5) + 20 f(5) >= 0
 c413: w(6) - 20 f(6) <= 0
 c414: w(6) + 20 f(6) >= 0
 c415: w(7) - 20 f(7) <= 0
 c416: w(7) + 20 f(7) >= 0
 c417: w(8) - 20 f(8) <= 0
 c418: w(8) + 20 f(8) >= 0
 c419: f(0) + f(1) + f(2) + f(3) + f(4) + f(5) + f(6) + f(7) + f(8) <= 4
 c420: s(0) + s(1) + s(2) + s(3) + s(4) + s(5) + s(6) + s(7) + s(8) + s(9)
       + s(10) + s(11) + s(12) + s(13) + s(14) + s(15) + s(16) + s(17) + s(18)
       + s(19) + s(20) + s(21) + s(22) + s(23) + s(24) + s(25) + s(26) + s(27)
       + s(28) + s(29) + s(30) + s(31) + s(32) + s(33) + s(34) + s(35) + s(36)
       + s(37) + s(38) + s(39) + s(40) + s(41) + s(42) + s(43) + s(44) + s(45)
       + s(46) + s(47) + s(48) + s(49) >= 45
Bounds
      w(8) Free
      w(7) Free
      w(6) Free
      w(5) Free
      w(4) Free
      w(3) Free
      w(2) Free
      w(1) Free
      w(0) Free
      z Free
 0 <= s(0) <= 1
 0 <= s(1) <= 1
 0 <= s(2) <= 1
 0 <= s(3) <= 1
 0 <= s(4) <= 1
 0 <= s(5) <= 1
 0 <= s(6) <= 1
 0 <= s(7) <= 1
 0 <= s(8) <= 1
 0 <= s(9) <= 1
 0 <= s(10) <= 1
 0 <= s(11) <= 1
 0 <= s(12) <= 1
 0 <= s(13) <= 1
 0 <= s(14) <= 1
 0 <= s(15) <= 1
 0 <= s(16) <= 1
 0 <= s(17) <= 1
 0 <= s(18) <= 1
 0 <= s(19) <= 1
 0 <= s(20) <= 1
 0 <= s(21) <= 1
 0 <= s(22) <= 1
 0 <= s(23) <= 1
 0 <= s(24) <= 1
 0 <= s(25) <= 1
 0 <= s(26) <= 1
 0 <= s(27) <= 1
 0 <= s(28) <= 1
 0 <= s(29) <= 1
 0 <= s(30) <= 1
 0 <= s(31) <= 1
 0 <= s(32) <= 1
 0 <= s(33) <= 1
 0 <= s(34) <= 1
 0 <= s(35) <= 1
 0 <= s(36) <= 1
 0 <= s(37) <= 1
 0 <= s(38) <= 1
 0 <= s(39) <= 1
 0 <= s(40) <= 1
 0 <= s(41) <= 1
 0 <= s(42) <= 1
 0 <= s(43) <= 1
 0 <= s(44) <= 1
 0 <= s(45) <= 1
 0 <= s(46) <= 1
 0 <= s(47) <= 1
 0 <= s(48) <= 1
 0 <= s(49) <= 1
 0 <= f(0) <= 1
 0 <= f(1) <= 1
 0 <= f(2) <= 1
 0 <= f(3) <= 1
 0 <= f(4) <= 1
 0 <= f(5) <= 1
 0 <= f(6) <= 1
 0 <= f(7) <= 1
 0 <= f(8) <= 1
Binaries
 s(0)  s(1)  s(2)  s(3)  s(4)  s(5)  s(6)  s(7)  s(8)  s(9)  s(10)  s(11) 
 s(12)  s(13)  s(14)  s(15)  s(16)  s(17)  s(18)  s(19)  s(20)  s(21)  s(22) 
 s(23)  s(24)  s(25)  s(26)  s(27)  s(28)  s(29)  s(30)  s(31)  s(32)  s(33) 
 s(34)  s(35)  s(36)  s(37)  s(38)  s(39)  s(40)  s(41)  s(42)  s(43)  s(44) 
 s(45)  s(46)  s(47)  s(48)  s(49)  f(0)  f(1)  f(2)  f(3)  f(4)  f(5)  f(6) 
 f(7)  f(8) 
End
